/*********************************************
 * OPL 12.6.0.0 Data
 * Author: Adrian Rodriguez Bazaga, Pau Rodriguez Esmerats
 * Creation Date: 06/12/2017 at 23:02:58
 *********************************************/

nNurses=152;
maxConsec=2;
maxPresence=7;
maxHours=5;
minHours=1;
hours=24;
demand= [26 28 45 43 28 45 43 28 32 17 5 1 7 1 11 1 11 1 6 0 21 38 21 30  ];
